NAME : X_26_seed_123_id_12
TYPE : CVRP
DIMENSION : 219
EDGE_WEIGHT_TYPE : EUC_2D
CAPACITY : 3
NODE_COORD_SECTION
1	0	0
2	751	775
3	887	725
4	56	39
5	921	435
6	845	626
7	780	202
8	282	844
9	509	895
10	914	958
11	525	461
12	6	503
13	956	446
14	846	413
15	80	593
16	927	914
17	441	857
18	592	753
19	859	872
20	980	932
21	234	926
22	710	923
23	680	295
24	331	709
25	960	172
26	9	587
27	850	835
28	135	518
29	648	207
30	791	308
31	621	794
32	458	970
33	27	349
34	883	983
35	296	217
36	18	106
37	142	651
38	90	237
39	541	648
40	291	670
41	890	535
42	341	829
43	80	496
44	643	482
45	346	664
46	353	938
47	471	233
48	41	398
49	669	458
50	510	521
51	246	311
52	603	326
53	258	338
54	878	590
55	204	863
56	562	310
57	768	519
58	134	358
59	391	173
60	128	65
61	605	66
62	442	523
63	414	995
64	946	964
65	765	145
66	342	262
67	685	526
68	214	535
69	544	559
70	861	630
71	891	609
72	392	937
73	798	63
74	958	759
75	486	896
76	992	544
77	610	870
78	760	986
79	392	772
80	627	892
81	309	616
82	886	650
83	313	30
84	237	170
85	928	924
86	2	823
87	948	250
88	345	960
89	375	142
90	899	587
91	469	599
92	672	80
93	790	474
94	860	590
95	638	744
96	980	430
97	957	957
98	235	216
99	250	592
100	233	524
101	490	967
102	621	423
103	114	674
104	754	986
105	153	365
106	178	771
107	43	156
108	936	956
109	54	123
110	513	829
111	432	745
112	585	192
113	795	733
114	175	399
115	781	690
116	462	957
117	535	156
118	99	609
119	707	347
120	669	852
121	582	699
122	177	38
123	306	94
124	783	92
125	863	909
126	824	717
127	432	798
128	231	707
129	587	171
130	942	44
131	947	94
132	107	64
133	541	920
134	655	53
135	116	740
136	394	179
137	554	245
138	760	834
139	500	864
140	528	57
141	488	399
142	354	145
143	952	327
144	63	210
145	235	364
146	971	127
147	249	829
148	911	186
149	799	584
150	313	292
151	530	890
152	453	23
153	180	772
154	989	387
155	808	344
156	241	448
157	269	938
158	294	56
159	848	510
160	760	487
161	241	287
162	335	594
163	980	796
164	938	243
165	896	883
166	728	726
167	987	74
168	305	281
169	460	683
170	484	72
171	756	459
172	947	243
173	472	196
174	388	94
175	413	860
176	654	292
177	957	852
178	874	572
179	147	153
180	673	386
181	728	448
182	613	462
183	722	427
184	127	287
185	704	701
186	859	948
187	722	745
188	5	578
189	860	488
190	964	716
191	427	959
192	843	873
193	536	709
194	111	909
195	89	91
196	533	553
197	265	237
198	859	340
199	388	643
200	970	503
201	404	120
202	211	834
203	505	737
204	93	479
205	635	125
206	345	395
207	909	878
208	136	305
209	93	630
210	976	747
211	749	86
212	46	401
213	132	11
214	800	471
215	357	537
216	565	900
217	514	851
218	739	622
219	563	830
DEMAND_SECTION
1	0
2	1
3	1
4	1
5	1
6	1
7	1
8	1
9	1
10	1
11	1
12	1
13	1
14	1
15	1
16	1
17	1
18	1
19	1
20	1
21	1
22	1
23	1
24	1
25	1
26	1
27	1
28	1
29	1
30	1
31	1
32	1
33	1
34	1
35	1
36	1
37	1
38	1
39	1
40	1
41	1
42	1
43	1
44	1
45	1
46	1
47	1
48	1
49	1
50	1
51	1
52	1
53	1
54	1
55	1
56	1
57	1
58	1
59	1
60	1
61	1
62	1
63	1
64	1
65	1
66	1
67	1
68	1
69	1
70	1
71	1
72	1
73	1
74	1
75	1
76	1
77	1
78	1
79	1
80	1
81	1
82	1
83	1
84	1
85	1
86	1
87	1
88	1
89	1
90	1
91	1
92	1
93	1
94	1
95	1
96	1
97	1
98	1
99	1
100	1
101	1
102	1
103	1
104	1
105	1
106	1
107	1
108	1
109	1
110	1
111	1
112	1
113	1
114	1
115	1
116	1
117	1
118	1
119	1
120	1
121	1
122	1
123	1
124	1
125	1
126	1
127	1
128	1
129	1
130	1
131	1
132	1
133	1
134	1
135	1
136	1
137	1
138	1
139	1
140	1
141	1
142	1
143	1
144	1
145	1
146	1
147	1
148	1
149	1
150	1
151	1
152	1
153	1
154	1
155	1
156	1
157	1
158	1
159	1
160	1
161	1
162	1
163	1
164	1
165	1
166	1
167	1
168	1
169	1
170	1
171	1
172	1
173	1
174	1
175	1
176	1
177	1
178	1
179	1
180	1
181	1
182	1
183	1
184	1
185	1
186	1
187	1
188	1
189	1
190	1
191	1
192	1
193	1
194	1
195	1
196	1
197	1
198	1
199	1
200	1
201	1
202	1
203	1
204	1
205	1
206	1
207	1
208	1
209	1
210	1
211	1
212	1
213	1
214	1
215	1
216	1
217	1
218	1
219	1
DEPOT_SECTION
1
-1
EOF
